\ This file has been generated by DOcplex
\ ENCODING=ISO-8859-1
\Problem name: BMW

Minimize
 obj: x_1_1 + x_3_1 + x_5_1 + x_1_4 + x_3_4 + x_5_4
Subject To
 c1: y_0_2 <= 2
 c2: y_0_2 >= 1
 c3: y_0_3 <= 2
 c4: y_0_3 >= 1
 c5: y_1_2 <= 3
 c6: y_1_2 >= 1
 c7: y_1_3 <= 3
 c8: y_1_3 >= 1
 c9: y_2_2 <= 4
 c10: y_2_2 >= 1
 c11: y_2_3 <= 4
 c12: y_2_3 >= 1
 c13: y_3_2 <= 4
 c14: y_3_2 >= 1
 c15: y_3_3 <= 4
 c16: y_3_3 >= 1
 c17: y_4_2 <= 4
 c18: y_4_2 >= 1
 c19: y_4_3 <= 4
 c20: y_4_3 >= 1
 c21: y_5_2 <= 3
 c22: y_5_2 >= 1
 c23: y_5_3 <= 3
 c24: y_5_3 >= 1
 c25: y_6_2 <= 2
 c26: y_6_2 >= 1
 c27: y_6_3 <= 2
 c28: y_6_3 >= 1
 c29: y_0_2 - x_1_1 - x_1_4 = 0
 c30: y_0_3 - x_1_1 - x_1_4 = 0
 c31: y_1_2 - x_1_1 - x_3_1 - x_1_4 = 0
 c32: y_1_3 - x_1_1 - x_1_4 - x_3_4 = 0
 c33: y_2_2 - x_1_1 - x_3_1 - x_1_4 - x_3_4 = 0
 c34: y_2_3 - x_1_1 - x_3_1 - x_1_4 - x_3_4 = 0
 c35: y_3_2 - x_1_1 - x_3_1 - x_5_1 - x_3_4 = 0
 c36: y_3_3 - x_3_1 - x_1_4 - x_3_4 - x_5_4 = 0
 c37: y_4_2 - x_3_1 - x_5_1 - x_3_4 - x_5_4 = 0
 c38: y_4_3 - x_3_1 - x_5_1 - x_3_4 - x_5_4 = 0
 c39: y_5_2 - x_3_1 - x_5_1 - x_5_4 = 0
 c40: y_5_3 - x_5_1 - x_3_4 - x_5_4 = 0
 c41: y_6_2 - x_5_1 - x_5_4 = 0
 c42: y_6_3 - x_5_1 - x_5_4 = 0

Bounds
 0 <= x_1_1 <= 1
 0 <= x_3_1 <= 1
 0 <= x_5_1 <= 1
 0 <= x_1_4 <= 1
 0 <= x_3_4 <= 1
 0 <= x_5_4 <= 1
       y_0_2 <= 8
       y_0_3 <= 8
       y_1_2 <= 8
       y_1_3 <= 8
       y_2_2 <= 8
       y_2_3 <= 8
       y_3_2 <= 8
       y_3_3 <= 8
       y_4_2 <= 8
       y_4_3 <= 8
       y_5_2 <= 8
       y_5_3 <= 8
       y_6_2 <= 8
       y_6_3 <= 8

Binaries
 x_1_1 x_3_1 x_5_1 x_1_4 x_3_4 x_5_4

Generals
 y_0_2 y_0_3 y_1_2 y_1_3 y_2_2 y_2_3 y_3_2 y_3_3 y_4_2 y_4_3 y_5_2 y_5_3 y_6_2
 y_6_3
End
